p wcnf 110 220 221 
1 64 -72 0 
1 -79 42 0 
1 -102 13 0 
1 38 -15 0 
1 101 -48 0 
1 -42 -4 0 
1 95 100 0 
1 -84 -31 0 
1 30 80 0 
1 9 -3 0 
1 -33 -17 0 
1 -110 -75 0 
1 -38 100 0 
1 12 28 0 
1 71 -40 0 
1 5 -35 0 
1 -78 11 0 
1 25 62 0 
1 3 65 0 
1 -48 32 0 
1 -45 -101 0 
1 4 -61 0 
1 -25 43 0 
1 -55 67 0 
1 -60 -43 0 
1 72 -30 0 
1 -19 -34 0 
1 -64 86 0 
1 -71 -63 0 
1 51 -17 0 
1 -39 -23 0 
1 79 -89 0 
1 -50 70 0 
1 -76 21 0 
1 -63 -1 0 
1 -10 93 0 
1 7 -1 0 
1 -48 -12 0 
1 108 37 0 
1 -91 63 0 
1 53 90 0 
1 67 20 0 
1 -101 -105 0 
1 89 -88 0 
1 -26 67 0 
1 -53 18 0 
1 72 -26 0 
1 36 -10 0 
1 46 106 0 
1 -98 39 0 
1 -85 89 0 
1 -15 54 0 
1 -103 -91 0 
1 47 44 0 
1 -41 50 0 
1 42 85 0 
1 6 4 0 
1 20 -49 0 
1 103 -71 0 
1 -57 -51 0 
1 86 -101 0 
1 -99 38 0 
1 51 61 0 
1 94 -82 0 
1 -35 -33 0 
1 -55 -4 0 
1 -14 -39 0 
1 -35 -107 0 
1 83 100 0 
1 64 -47 0 
1 -40 -16 0 
1 -70 -100 0 
1 61 5 0 
1 38 9 0 
1 -87 -52 0 
1 -1 -61 0 
1 -23 88 0 
1 13 -75 0 
1 -69 -90 0 
1 -17 75 0 
1 -59 -65 0 
1 -62 97 0 
1 -106 -101 0 
1 -8 -17 0 
1 17 -8 0 
1 110 58 0 
1 -10 -29 0 
1 -4 38 0 
1 10 6 0 
1 72 41 0 
1 97 43 0 
1 -2 -43 0 
1 83 2 0 
1 47 106 0 
1 -99 94 0 
1 25 46 0 
1 -42 -7 0 
1 91 87 0 
1 107 -77 0 
1 -71 56 0 
1 78 58 0 
1 -79 62 0 
1 -107 -29 0 
1 -93 -32 0 
1 47 60 0 
1 -106 -75 0 
1 -39 -87 0 
1 -74 -105 0 
1 63 93 0 
1 -110 65 0 
1 62 -91 0 
1 26 -14 0 
1 67 -8 0 
1 -18 -103 0 
1 -101 49 0 
1 -24 37 0 
1 -70 82 0 
1 101 -77 0 
1 -14 93 0 
1 56 75 0 
1 103 7 0 
1 66 41 0 
1 -53 -23 0 
1 -61 31 0 
1 -86 -80 0 
1 56 -48 0 
1 6 -105 0 
1 -12 46 0 
1 12 27 0 
1 -7 -2 0 
1 -67 68 0 
1 101 -62 0 
1 34 -48 0 
1 -99 2 0 
1 85 99 0 
1 -100 88 0 
1 65 88 0 
1 83 29 0 
1 21 -98 0 
1 -52 110 0 
1 -104 -95 0 
1 67 8 0 
1 9 -28 0 
1 -13 14 0 
1 73 93 0 
1 -91 -36 0 
1 -75 -13 0 
1 60 -32 0 
1 -40 20 0 
1 13 29 0 
1 82 -99 0 
1 72 -79 0 
1 90 -26 0 
1 -9 -85 0 
1 -43 -55 0 
1 84 81 0 
1 -9 53 0 
1 -63 -101 0 
1 53 -12 0 
1 26 76 0 
1 40 -90 0 
1 96 -39 0 
1 100 104 0 
1 -61 -28 0 
1 90 26 0 
1 3 -97 0 
1 21 52 0 
1 -66 -106 0 
1 40 -10 0 
1 55 -29 0 
1 21 103 0 
1 87 27 0 
1 -87 -64 0 
1 23 33 0 
1 -34 83 0 
1 101 -38 0 
1 -4 7 0 
1 41 107 0 
1 75 -50 0 
1 -38 3 0 
1 37 -56 0 
1 -66 71 0 
1 -2 -24 0 
1 89 -103 0 
1 14 -94 0 
1 -92 -55 0 
1 -49 -5 0 
1 -45 2 0 
1 109 68 0 
1 -109 -60 0 
1 25 -63 0 
1 108 -67 0 
1 -31 -64 0 
1 10 -66 0 
1 -78 83 0 
1 -50 -45 0 
1 -45 -6 0 
1 3 -68 0 
1 -98 -24 0 
1 69 -28 0 
1 -93 94 0 
1 65 18 0 
1 25 -73 0 
1 -61 -57 0 
1 -34 -67 0 
1 -61 -5 0 
1 -9 -84 0 
1 1 -28 0 
1 -99 71 0 
1 15 -70 0 
1 54 -60 0 
1 -71 80 0 
1 95 60 0 
1 -102 26 0 
1 22 -34 0 
1 105 -8 0 
1 27 -67 0 
1 54 -49 0 
1 -10 79 0 
1 -86 75 0 
